* ENCODING=ISO-8859-1
NAME          CPLEX
ROWS
 N  obj1    
 G  c1      
 G  c2      
 G  c3      
 G  c4      
 G  c5      
 G  c6      
 G  c7      
 G  c8      
 G  c9      
 G  c10     
 G  c11     
 G  c12     
 G  c13     
 G  c14     
 G  c15     
 G  c16     
 G  c17     
 G  c18     
 G  c19     
 G  c20     
 G  c21     
 G  c22     
 G  c23     
 G  c24     
 G  c25     
 G  c26     
 G  c27     
 G  c28     
 G  c29     
 G  c30     
 G  c31     
 G  c32     
 G  c33     
 G  c34     
 G  c35     
 G  c36     
 G  c37     
 G  c38     
 G  c39     
 G  c40     
COLUMNS
    MARK0000  'MARKER'                 'INTORG'
    x1        obj1                            1
    x1        c4                            299
    x1        c25                           940
    x1        c34                           777
    x2        obj1                            1
    x2        c5                            555
    x2        c8                            350
    x2        c32                           945
    x2        c37                           648
    x3        obj1                            1
    x3        c3                            869
    x3        c6                            346
    x3        c7                            831
    x3        c8                            766
    x3        c23                           257
    x4        obj1                            1
    x4        c2                            596
    x4        c5                            110
    x4        c13                           703
    x4        c31                           700
    x4        c37                           425
    x5        obj1                            1
    x5        c9                            189
    x5        c13                           901
    x5        c23                           907
    x5        c36                           862
    x6        obj1                            1
    x6        c5                            319
    x6        c17                           696
    x6        c20                           770
    x6        c31                           585
    x6        c32                           836
    x6        c40                           421
    x7        obj1                            1
    x7        c3                            544
    x7        c6                            291
    x7        c13                           505
    x7        c18                           697
    x8        obj1                            1
    x8        c3                            227
    x8        c24                           428
    x8        c32                           887
    x9        obj1                            1
    x9        c11                           640
    x9        c19                           876
    x9        c22                           243
    x10       obj1                            1
    x10       c3                            451
    x10       c6                            405
    x10       c8                            651
    x10       c24                           926
    x11       obj1                            1
    x11       c1                            872
    x11       c8                            530
    x11       c25                           701
    x12       obj1                            1
    x12       c24                           521
    x12       c26                           190
    x13       obj1                            1
    x13       c13                           260
    x13       c31                           305
    x13       c39                           640
    x14       obj1                            1
    x14       c12                           546
    x14       c18                           636
    x14       c26                           883
    x15       obj1                            1
    x15       c10                           533
    x15       c14                           259
    x15       c16                           527
    x15       c23                           274
    x15       c28                           985
    x15       c34                           273
    x16       obj1                            1
    x16       c9                            249
    x16       c35                           870
    x17       obj1                            1
    x17       c13                           994
    x17       c28                           953
    x18       obj1                            1
    x18       c8                            213
    x18       c9                            828
    x18       c14                           479
    x19       obj1                            1
    x19       c10                           958
    x19       c16                           591
    x20       obj1                            1
    x21       obj1                            1
    x21       c7                            816
    x21       c9                            409
    x21       c26                           823
    x21       c33                           328
    x21       c36                           284
    x21       c37                           861
    x22       obj1                            1
    x22       c18                           511
    x22       c32                           867
    x22       c35                           880
    x23       obj1                            1
    x23       c17                           590
    x23       c23                           809
    x23       c30                           213
    x23       c37                           658
    x24       obj1                            1
    x24       c7                            388
    x24       c9                            276
    x24       c14                           370
    x24       c16                           781
    x24       c26                           556
    x24       c34                           463
    x25       obj1                            1
    x25       c5                            807
    x25       c9                            871
    x25       c12                           500
    x25       c22                           286
    x26       obj1                            1
    x26       c14                           533
    x26       c15                           467
    x26       c39                           258
    x27       obj1                            1
    x27       c36                           371
    x28       obj1                            1
    x28       c1                            190
    x28       c3                            201
    x28       c17                           936
    x28       c23                           961
    x28       c36                           202
    x28       c39                           934
    x29       obj1                            1
    x29       c2                            526
    x29       c5                            107
    x29       c7                            912
    x29       c25                           678
    x29       c26                           157
    x29       c35                           552
    x29       c37                           568
    x30       obj1                            1
    x30       c2                            116
    x30       c14                           194
    x30       c22                           399
    x30       c37                           927
    x30       c40                           246
    x31       obj1                            1
    x31       c3                            520
    x31       c6                            701
    x31       c13                           213
    x31       c18                           476
    x31       c20                           272
    x31       c40                           747
    x32       obj1                            1
    x32       c6                            456
    x32       c8                            364
    x32       c26                           191
    x32       c28                           128
    x32       c31                           876
    x32       c39                           460
    x33       obj1                            1
    x33       c2                            979
    x33       c20                           626
    x33       c22                           102
    x33       c26                           323
    x33       c30                           346
    x34       obj1                            1
    x34       c1                            530
    x34       c2                            364
    x34       c4                            230
    x34       c9                            790
    x34       c14                           979
    x34       c25                           246
    x34       c26                           446
    x34       c27                           613
    x34       c28                           901
    x35       obj1                            1
    x35       c4                            161
    x35       c8                            981
    x35       c29                           986
    x35       c33                           324
    x36       obj1                            1
    x36       c36                           394
    x37       obj1                            1
    x37       c5                            984
    x37       c9                            982
    x37       c15                           792
    x37       c23                           924
    x37       c24                           902
    x37       c31                           379
    x37       c33                           373
    x38       obj1                            1
    x38       c3                            578
    x38       c4                            424
    x38       c10                           854
    x38       c13                           307
    x38       c17                           233
    x38       c21                           478
    x38       c23                           979
    x38       c35                           888
    x38       c36                           406
    x39       obj1                            1
    x39       c22                           666
    x39       c28                           248
    x39       c30                           506
    x40       obj1                            1
    x40       c5                            216
    x40       c14                           538
    x40       c27                           931
    x41       obj1                            1
    x41       c15                           808
    x41       c16                           616
    x41       c20                           800
    x41       c32                           623
    x41       c39                           507
    x42       obj1                            1
    x42       c2                            114
    x42       c4                            676
    x42       c23                           502
    x42       c29                           601
    x42       c30                           438
    x42       c32                           613
    x43       obj1                            1
    x43       c6                            648
    x43       c11                           840
    x43       c13                           715
    x43       c28                           414
    x43       c29                           493
    x44       obj1                            1
    x44       c11                           730
    x44       c20                           258
    x45       obj1                            1
    x45       c18                           435
    x45       c20                           155
    x45       c26                           561
    x45       c36                           591
    x46       obj1                            1
    x46       c21                           686
    x46       c32                           625
    x46       c40                           367
    x47       obj1                            1
    x47       c4                            111
    x47       c19                           893
    x47       c20                           684
    x47       c35                           948
    x48       obj1                            1
    x48       c11                           546
    x48       c15                           345
    x48       c16                           455
    x48       c18                           920
    x48       c31                           584
    x48       c40                           448
    x49       obj1                            1
    x49       c1                            931
    x49       c19                           310
    x49       c36                           777
    x50       obj1                            1
    x50       c3                            727
    x50       c19                           596
    x50       c26                           558
    x50       c36                           738
    x50       c40                           987
    x51       obj1                            1
    x51       c14                           264
    x51       c22                           328
    x51       c24                           781
    x51       c32                           335
    x51       c40                           227
    x52       obj1                            1
    x52       c15                           245
    x52       c31                           707
    x52       c38                           210
    x53       obj1                            1
    x53       c8                            213
    x53       c24                           603
    x53       c35                           320
    x53       c40                           325
    x54       obj1                            1
    x54       c21                           218
    x54       c33                           328
    x54       c38                           876
    x55       obj1                            1
    x55       c14                           348
    x55       c17                           502
    x55       c28                           655
    x55       c31                           747
    x55       c34                           924
    x56       obj1                            1
    x56       c9                            334
    x56       c16                           562
    x56       c31                           671
    x57       obj1                            1
    x58       obj1                            1
    x58       c24                           829
    x58       c31                           983
    x59       obj1                            1
    x59       c14                           850
    x59       c15                           627
    x60       obj1                            1
    x60       c9                            218
    x60       c11                           855
    x60       c13                           796
    x60       c16                           935
    x60       c23                           588
    x60       c36                           948
    x61       obj1                            1
    x61       c9                            677
    x61       c22                           178
    x61       c31                           704
    x61       c40                           847
    x62       obj1                            1
    x62       c10                           179
    x62       c39                           422
    x63       obj1                            1
    x63       c17                           390
    x63       c22                           868
    x63       c25                           256
    x63       c40                           759
    x64       obj1                            1
    x64       c3                            425
    x64       c14                           609
    x64       c18                           125
    x64       c21                           430
    x64       c37                           933
    x65       obj1                            1
    x65       c3                            519
    x65       c31                           550
    x66       obj1                            1
    x66       c13                           493
    x66       c22                           694
    x66       c30                           148
    x66       c35                           677
    x66       c37                           585
    x66       c38                           452
    x67       obj1                            1
    x67       c2                            812
    x67       c20                           627
    x67       c38                           644
    x68       obj1                            1
    x68       c3                            744
    x69       obj1                            1
    x69       c18                           341
    x69       c25                           503
    x69       c30                           157
    x69       c38                           876
    x70       obj1                            1
    x70       c3                            531
    x70       c21                           519
    x70       c23                           654
    x70       c24                           923
    x70       c26                           698
    x70       c37                           392
    x71       obj1                            1
    x71       c12                           552
    x71       c19                           596
    x71       c27                           512
    x71       c36                           330
    x71       c40                           488
    x72       obj1                            1
    x72       c2                            889
    x72       c4                            340
    x72       c36                           761
    x73       obj1                            1
    x73       c2                            215
    x73       c14                           972
    x73       c23                           700
    x74       obj1                            1
    x74       c17                           728
    x74       c23                           223
    x74       c32                           636
    x74       c33                           550
    x75       obj1                            1
    x75       c2                            525
    x75       c8                            619
    x75       c22                           686
    x75       c26                           901
    x75       c27                           223
    x75       c38                           685
    x76       obj1                            1
    x76       c12                           770
    x76       c16                           847
    x76       c25                           169
    x76       c33                           953
    x77       obj1                            1
    x77       c5                            436
    x77       c21                           897
    x77       c22                           409
    x78       obj1                            1
    x78       c6                            697
    x78       c19                           450
    x78       c29                           799
    x79       obj1                            1
    x79       c28                           407
    x80       obj1                            1
    x80       c8                            811
    x80       c10                           205
    x80       c22                           873
    MARK0001  'MARKER'                 'INTEND'
RHS
    rhs       c1                           1262
    rhs       c2                           2568
    rhs       c3                           3168
    rhs       c4                           1121
    rhs       c5                           1767
    rhs       c6                           1772
    rhs       c7                           1474
    rhs       c8                           2749
    rhs       c9                           2912
    rhs       c10                          1365
    rhs       c11                          1806
    rhs       c12                          1184
    rhs       c13                          2944
    rhs       c14                          3198
    rhs       c15                          1642
    rhs       c16                          2657
    rhs       c17                          2038
    rhs       c18                          2071
    rhs       c19                          1861
    rhs       c20                          2096
    rhs       c21                          1614
    rhs       c22                          2866
    rhs       c23                          3889
    rhs       c24                          2957
    rhs       c25                          1747
    rhs       c26                          3144
    rhs       c27                          1140
    rhs       c28                          2346
    rhs       c29                          1440
    rhs       c30                           904
    rhs       c31                          3896
    rhs       c32                          3184
    rhs       c33                          1428
    rhs       c34                          1219
    rhs       c35                          2568
    rhs       c36                          3332
    rhs       c37                          2999
    rhs       c38                          1872
    rhs       c39                          1611
    rhs       c40                          2931
BOUNDS
 LI bnd       x1        0
 LI bnd       x2        0
 LI bnd       x3        0
 LI bnd       x4        0
 LI bnd       x5        0
 LI bnd       x6        0
 LI bnd       x7        0
 LI bnd       x8        0
 LI bnd       x9        0
 LI bnd       x10       0
 LI bnd       x11       0
 LI bnd       x12       0
 LI bnd       x13       0
 LI bnd       x14       0
 LI bnd       x15       0
 LI bnd       x16       0
 LI bnd       x17       0
 LI bnd       x18       0
 LI bnd       x19       0
 LI bnd       x20       0
 LI bnd       x21       0
 LI bnd       x22       0
 LI bnd       x23       0
 LI bnd       x24       0
 LI bnd       x25       0
 LI bnd       x26       0
 LI bnd       x27       0
 LI bnd       x28       0
 LI bnd       x29       0
 LI bnd       x30       0
 LI bnd       x31       0
 LI bnd       x32       0
 LI bnd       x33       0
 LI bnd       x34       0
 LI bnd       x35       0
 LI bnd       x36       0
 LI bnd       x37       0
 LI bnd       x38       0
 LI bnd       x39       0
 LI bnd       x40       0
 LI bnd       x41       0
 LI bnd       x42       0
 LI bnd       x43       0
 LI bnd       x44       0
 LI bnd       x45       0
 LI bnd       x46       0
 LI bnd       x47       0
 LI bnd       x48       0
 LI bnd       x49       0
 LI bnd       x50       0
 LI bnd       x51       0
 LI bnd       x52       0
 LI bnd       x53       0
 LI bnd       x54       0
 LI bnd       x55       0
 LI bnd       x56       0
 LI bnd       x57       0
 LI bnd       x58       0
 LI bnd       x59       0
 LI bnd       x60       0
 LI bnd       x61       0
 LI bnd       x62       0
 LI bnd       x63       0
 LI bnd       x64       0
 LI bnd       x65       0
 LI bnd       x66       0
 LI bnd       x67       0
 LI bnd       x68       0
 LI bnd       x69       0
 LI bnd       x70       0
 LI bnd       x71       0
 LI bnd       x72       0
 LI bnd       x73       0
 LI bnd       x74       0
 LI bnd       x75       0
 LI bnd       x76       0
 LI bnd       x77       0
 LI bnd       x78       0
 LI bnd       x79       0
 LI bnd       x80       0
ENDATA
